p cnf 962 2469
51 -695 -1 0
-51 695 0
-51 1 0
52 -51 -3 0
-52 51 0
-52 3 0
53 -5 -4 0
-53 5 0
-53 4 0
54 -53 -6 0
-54 53 0
-54 6 0
55 -696 -697 0
-55 696 0
-55 697 0
56 -698 -7 0
-56 698 0
-56 7 0
57 -56 -699 0
-57 56 0
-57 699 0
58 -700 -55 0
-58 700 0
-58 55 0
59 -11 -701 0
-59 11 0
-59 701 0
60 -59 -3 0
-60 59 0
-60 3 0
61 -702 -58 0
-61 702 0
-61 58 0
62 -12 -703 0
-62 12 0
-62 703 0
63 -62 -704 0
-63 62 0
-63 704 0
64 -705 -61 0
-64 705 0
-64 61 0
65 -706 -14 0
-65 706 0
-65 14 0
66 -65 -16 0
-66 65 0
-66 16 0
67 -707 -64 0
-67 707 0
-67 64 0
68 -18 -17 0
-68 18 0
-68 17 0
69 -68 -708 0
-69 68 0
-69 708 0
70 -709 -67 0
-70 709 0
-70 67 0
71 -19 -710 0
-71 19 0
-71 710 0
72 -71 -20 0
-72 71 0
-72 20 0
73 -711 -70 0
-73 711 0
-73 70 0
74 -21 -9 0
-74 21 0
-74 9 0
75 -74 -13 0
-75 74 0
-75 13 0
76 -712 -73 0
-76 712 0
-76 73 0
77 -713 -22 0
-77 713 0
-77 22 0
78 -77 -714 0
-78 77 0
-78 714 0
79 -715 -76 0
-79 715 0
-79 76 0
80 -716 -25 0
-80 716 0
-80 25 0
81 -80 -713 0
-81 80 0
-81 713 0
82 -717 -79 0
-82 717 0
-82 79 0
83 -27 -706 0
-83 27 0
-83 706 0
84 -83 -718 0
-84 83 0
-84 718 0
85 -719 -82 0
-85 719 0
-85 82 0
86 -720 -706 0
-86 720 0
-86 706 0
87 -86 -721 0
-87 86 0
-87 721 0
88 -722 -85 0
-88 722 0
-88 85 0
89 -723 -7 0
-89 723 0
-89 7 0
90 -89 -9 0
-90 89 0
-90 9 0
91 -724 -88 0
-91 724 0
-91 88 0
92 -17 -698 0
-92 17 0
-92 698 0
93 -92 -30 0
-93 92 0
-93 30 0
94 -725 -91 0
-94 725 0
-94 91 0
95 -726 -22 0
-95 726 0
-95 22 0
96 -95 -20 0
-96 95 0
-96 20 0
97 -727 -94 0
-97 727 0
-97 94 0
98 -701 -2 0
-98 701 0
-98 2 0
99 -98 -699 0
-99 98 0
-99 699 0
100 -728 -97 0
-100 728 0
-100 97 0
101 -729 -730 0
-101 729 0
-101 730 0
102 -101 -34 0
-102 101 0
-102 34 0
103 -731 -100 0
-103 731 0
-103 100 0
104 -732 -19 0
-104 732 0
-104 19 0
105 -104 -733 0
-105 104 0
-105 733 0
106 -734 -103 0
-106 734 0
-106 103 0
107 -735 -736 0
-107 735 0
-107 736 0
108 -107 -737 0
-108 107 0
-108 737 0
109 -738 -106 0
-109 738 0
-109 106 0
110 -739 -16 0
-110 739 0
-110 16 0
111 -110 -20 0
-111 110 0
-111 20 0
112 -740 -109 0
-112 740 0
-112 109 0
113 -36 -14 0
-113 36 0
-113 14 0
114 -113 -24 0
-114 113 0
-114 24 0
115 -741 -112 0
-115 741 0
-115 112 0
116 -742 -28 0
-116 742 0
-116 28 0
117 -116 -714 0
-117 116 0
-117 714 0
118 -743 -115 0
-118 743 0
-118 115 0
119 -708 -10 0
-119 708 0
-119 10 0
120 -119 -744 0
-120 119 0
-120 744 0
121 -745 -118 0
-121 745 0
-121 118 0
122 -38 -37 0
-122 38 0
-122 37 0
123 -122 -704 0
-123 122 0
-123 704 0
124 -746 -121 0
-124 746 0
-124 121 0
125 -22 -7 0
-125 22 0
-125 7 0
126 -125 -723 0
-126 125 0
-126 723 0
127 -747 -124 0
-127 747 0
-127 124 0
128 -32 -706 0
-128 32 0
-128 706 0
129 -128 -742 0
-129 128 0
-129 742 0
130 -748 -127 0
-130 748 0
-130 127 0
131 -18 -710 0
-131 18 0
-131 710 0
132 -131 -33 0
-132 131 0
-132 33 0
133 -749 -130 0
-133 749 0
-133 130 0
134 -33 -750 0
-134 33 0
-134 750 0
135 -134 -704 0
-135 134 0
-135 704 0
136 -751 -133 0
-136 751 0
-136 133 0
137 -41 -752 0
-137 41 0
-137 752 0
138 -137 -753 0
-138 137 0
-138 753 0
139 -754 -136 0
-139 754 0
-139 136 0
140 -42 -755 0
-140 42 0
-140 755 0
141 -140 -716 0
-141 140 0
-141 716 0
142 -756 -139 0
-142 756 0
-142 139 0
143 -710 -752 0
-143 710 0
-143 752 0
144 -143 -757 0
-144 143 0
-144 757 0
145 -758 -142 0
-145 758 0
-145 142 0
146 -43 -32 0
-146 43 0
-146 32 0
147 -146 -31 0
-147 146 0
-147 31 0
148 -759 -145 0
-148 759 0
-148 145 0
149 -44 -11 0
-149 44 0
-149 11 0
150 -149 -6 0
-150 149 0
-150 6 0
151 -760 -148 0
-151 760 0
-151 148 0
152 -42 -761 0
-152 42 0
-152 761 0
153 -152 -723 0
-153 152 0
-153 723 0
154 -762 -151 0
-154 762 0
-154 151 0
155 -43 -763 0
-155 43 0
-155 763 0
156 -155 -21 0
-156 155 0
-156 21 0
157 -764 -154 0
-157 764 0
-157 154 0
158 -704 -765 0
-158 704 0
-158 765 0
159 -158 -718 0
-159 158 0
-159 718 0
160 -766 -157 0
-160 766 0
-160 157 0
161 -42 -716 0
-161 42 0
-161 716 0
162 -161 -21 0
-162 161 0
-162 21 0
163 -767 -160 0
-163 767 0
-163 160 0
164 -41 -742 0
-164 41 0
-164 742 0
165 -164 -768 0
-165 164 0
-165 768 0
166 -769 -163 0
-166 769 0
-166 163 0
167 -41 -13 0
-167 41 0
-167 13 0
168 -167 -718 0
-168 167 0
-168 718 0
169 -770 -166 0
-169 770 0
-169 166 0
170 -735 -695 0
-170 735 0
-170 695 0
171 -170 -723 0
-171 170 0
-171 723 0
172 -771 -169 0
-172 771 0
-172 169 0
173 -772 -773 0
-173 772 0
-173 773 0
174 -173 -774 0
-174 173 0
-174 774 0
175 -775 -172 0
-175 775 0
-175 172 0
176 -31 -28 0
-176 31 0
-176 28 0
177 -176 -3 0
-177 176 0
-177 3 0
178 -776 -175 0
-178 776 0
-178 175 0
179 -737 -723 0
-179 737 0
-179 723 0
180 -179 -24 0
-180 179 0
-180 24 0
181 -777 -178 0
-181 777 0
-181 178 0
182 -757 -2 0
-182 757 0
-182 2 0
183 -182 -778 0
-183 182 0
-183 778 0
184 -779 -181 0
-184 779 0
-184 181 0
185 -763 -2 0
-185 763 0
-185 2 0
186 -185 -714 0
-186 185 0
-186 714 0
187 -780 -184 0
-187 780 0
-187 184 0
188 -43 -5 0
-188 43 0
-188 5 0
189 -188 -20 0
-189 188 0
-189 20 0
190 -781 -187 0
-190 781 0
-190 187 0
191 -782 -742 0
-191 782 0
-191 742 0
192 -191 -721 0
-192 191 0
-192 721 0
193 -783 -190 0
-193 783 0
-193 190 0
194 -782 -7 0
-194 782 0
-194 7 0
195 -194 -755 0
-195 194 0
-195 755 0
196 -784 -193 0
-196 784 0
-196 193 0
197 -37 -34 0
-197 37 0
-197 34 0
198 -197 -714 0
-198 197 0
-198 714 0
199 -785 -196 0
-199 785 0
-199 196 0
200 -772 -695 0
-200 772 0
-200 695 0
201 -200 -36 0
-201 200 0
-201 36 0
202 -786 -199 0
-202 786 0
-202 199 0
203 -772 -11 0
-203 772 0
-203 11 0
204 -203 -733 0
-204 203 0
-204 733 0
205 -787 -202 0
-205 787 0
-205 202 0
206 -782 -32 0
-206 782 0
-206 32 0
207 -206 -46 0
-207 206 0
-207 46 0
208 -788 -205 0
-208 788 0
-208 205 0
209 -737 -716 0
-209 737 0
-209 716 0
210 -209 -714 0
-210 209 0
-210 714 0
211 -789 -208 0
-211 789 0
-211 208 0
212 -32 -18 0
-212 32 0
-212 18 0
213 -212 -16 0
-213 212 0
-213 16 0
214 -790 -211 0
-214 790 0
-214 211 0
215 -791 -782 0
-215 791 0
-215 782 0
216 -215 -36 0
-216 215 0
-216 36 0
217 -792 -214 0
-217 792 0
-217 214 0
218 -732 -765 0
-218 732 0
-218 765 0
219 -218 -29 0
-219 218 0
-219 29 0
220 -793 -217 0
-220 793 0
-220 217 0
221 -736 -765 0
-221 736 0
-221 765 0
222 -221 -794 0
-222 221 0
-222 794 0
223 -795 -220 0
-223 795 0
-223 220 0
224 -26 -4 0
-224 26 0
-224 4 0
225 -224 -16 0
-225 224 0
-225 16 0
226 -796 -223 0
-226 796 0
-226 223 0
227 -794 -9 0
-227 794 0
-227 9 0
228 -227 -718 0
-228 227 0
-228 718 0
229 -797 -226 0
-229 797 0
-229 226 0
230 -86 -2 0
-230 86 0
-230 2 0
231 -798 -229 0
-231 798 0
-231 229 0
232 -48 -799 0
-232 48 0
-232 799 0
233 -232 -723 0
-233 232 0
-233 723 0
234 -800 -231 0
-234 800 0
-234 231 0
235 -737 -765 0
-235 737 0
-235 765 0
236 -235 -801 0
-236 235 0
-236 801 0
237 -802 -234 0
-237 802 0
-237 234 0
238 -26 -2 0
-238 26 0
-238 2 0
239 -238 -704 0
-239 238 0
-239 704 0
240 -803 -237 0
-240 803 0
-240 237 0
241 -44 -804 0
-241 44 0
-241 804 0
242 -241 -38 0
-242 241 0
-242 38 0
243 -805 -240 0
-243 805 0
-243 240 0
244 -739 -20 0
-244 739 0
-244 20 0
245 -244 -774 0
-245 244 0
-245 774 0
246 -806 -243 0
-246 806 0
-246 243 0
247 -773 -7 0
-247 773 0
-247 7 0
248 -247 -29 0
-248 247 0
-248 29 0
249 -807 -246 0
-249 807 0
-249 246 0
250 -42 -27 0
-250 42 0
-250 27 0
251 -250 -714 0
-251 250 0
-251 714 0
252 -808 -249 0
-252 808 0
-252 249 0
253 -791 -12 0
-253 791 0
-253 12 0
254 -253 -9 0
-254 253 0
-254 9 0
255 -809 -252 0
-255 809 0
-255 252 0
256 -41 -11 0
-256 41 0
-256 11 0
257 -256 -735 0
-257 256 0
-257 735 0
258 -810 -255 0
-258 810 0
-258 255 0
259 -729 -28 0
-259 729 0
-259 28 0
260 -259 -726 0
-260 259 0
-260 726 0
261 -811 -258 0
-261 811 0
-261 258 0
262 -33 -8 0
-262 33 0
-262 8 0
263 -262 -799 0
-263 262 0
-263 799 0
264 -812 -261 0
-264 812 0
-264 261 0
265 -28 -10 0
-265 28 0
-265 10 0
266 -265 -16 0
-266 265 0
-266 16 0
267 -813 -264 0
-267 813 0
-267 264 0
268 -17 -755 0
-268 17 0
-268 755 0
269 -268 -804 0
-269 268 0
-269 804 0
270 -814 -267 0
-270 814 0
-270 267 0
271 -39 -8 0
-271 39 0
-271 8 0
272 -271 -791 0
-272 271 0
-272 791 0
273 -815 -270 0
-273 815 0
-273 270 0
274 -772 -752 0
-274 772 0
-274 752 0
275 -274 -32 0
-275 274 0
-275 32 0
276 -816 -273 0
-276 816 0
-276 273 0
277 -34 -737 0
-277 34 0
-277 737 0
278 -277 -38 0
-278 277 0
-278 38 0
279 -817 -276 0
-279 817 0
-279 276 0
280 -794 -791 0
-280 794 0
-280 791 0
281 -280 -16 0
-281 280 0
-281 16 0
282 -818 -279 0
-282 818 0
-282 279 0
283 -742 -726 0
-283 742 0
-283 726 0
284 -283 -23 0
-284 283 0
-284 23 0
285 -819 -282 0
-285 819 0
-285 282 0
286 -773 -735 0
-286 773 0
-286 735 0
287 -286 -791 0
-287 286 0
-287 791 0
288 -820 -285 0
-288 820 0
-288 285 0
289 -43 -8 0
-289 43 0
-289 8 0
290 -289 -48 0
-290 289 0
-290 48 0
291 -821 -288 0
-291 821 0
-291 288 0
292 -822 -26 0
-292 822 0
-292 26 0
293 -292 -20 0
-293 292 0
-293 20 0
294 -823 -291 0
-294 823 0
-294 291 0
295 -824 -32 0
-295 824 0
-295 32 0
296 -295 -36 0
-296 295 0
-296 36 0
297 -825 -294 0
-297 825 0
-297 294 0
298 -757 -4 0
-298 757 0
-298 4 0
299 -298 -3 0
-299 298 0
-299 3 0
300 -826 -297 0
-300 826 0
-300 297 0
301 -47 -765 0
-301 47 0
-301 765 0
302 -301 -699 0
-302 301 0
-302 699 0
303 -827 -300 0
-303 827 0
-303 300 0
304 -215 -799 0
-304 215 0
-304 799 0
305 -828 -303 0
-305 828 0
-305 303 0
306 -8 -4 0
-306 8 0
-306 4 0
307 -306 -30 0
-307 306 0
-307 30 0
308 -829 -305 0
-308 829 0
-308 305 0
309 -7 -4 0
-309 7 0
-309 4 0
310 -309 -830 0
-310 309 0
-310 830 0
311 -831 -308 0
-311 831 0
-311 308 0
312 -41 -29 0
-312 41 0
-312 29 0
313 -312 -723 0
-313 312 0
-313 723 0
314 -832 -311 0
-314 832 0
-314 311 0
315 -36 -765 0
-315 36 0
-315 765 0
316 -315 -714 0
-316 315 0
-316 714 0
317 -833 -314 0
-317 833 0
-317 314 0
318 -42 -25 0
-318 42 0
-318 25 0
319 -318 -29 0
-319 318 0
-319 29 0
320 -834 -317 0
-320 834 0
-320 317 0
321 -799 -9 0
-321 799 0
-321 9 0
322 -321 -45 0
-322 321 0
-322 45 0
323 -835 -320 0
-323 835 0
-323 320 0
324 -182 -23 0
-324 182 0
-324 23 0
325 -836 -323 0
-325 836 0
-325 323 0
326 -8 -753 0
-326 8 0
-326 753 0
327 -326 -9 0
-327 326 0
-327 9 0
328 -837 -325 0
-328 837 0
-328 325 0
329 -49 -721 0
-329 49 0
-329 721 0
330 -329 -774 0
-330 329 0
-330 774 0
331 -838 -328 0
-331 838 0
-331 328 0
332 -42 -737 0
-332 42 0
-332 737 0
333 -332 -801 0
-333 332 0
-333 801 0
334 -839 -331 0
-334 839 0
-334 331 0
335 -298 -31 0
-335 298 0
-335 31 0
336 -840 -334 0
-336 840 0
-336 334 0
337 -757 -16 0
-337 757 0
-337 16 0
338 -337 -40 0
-338 337 0
-338 40 0
339 -841 -336 0
-339 841 0
-339 336 0
340 -716 -698 0
-340 716 0
-340 698 0
341 -340 -3 0
-341 340 0
-341 3 0
342 -842 -339 0
-342 842 0
-342 339 0
343 -44 -8 0
-343 44 0
-343 8 0
344 -343 -755 0
-344 343 0
-344 755 0
345 -843 -342 0
-345 843 0
-345 342 0
346 -35 -6 0
-346 35 0
-346 6 0
347 -346 -736 0
-347 346 0
-347 736 0
348 -844 -345 0
-348 844 0
-348 345 0
349 -42 -17 0
-349 42 0
-349 17 0
350 -349 -698 0
-350 349 0
-350 698 0
351 -845 -348 0
-351 845 0
-351 348 0
352 -29 -4 0
-352 29 0
-352 4 0
353 -352 -38 0
-353 352 0
-353 38 0
354 -846 -351 0
-354 846 0
-354 351 0
355 -4 -695 0
-355 4 0
-355 695 0
356 -355 -732 0
-356 355 0
-356 732 0
357 -847 -354 0
-357 847 0
-357 354 0
358 -824 -19 0
-358 824 0
-358 19 0
359 -358 -804 0
-359 358 0
-359 804 0
360 -848 -357 0
-360 848 0
-360 357 0
361 -49 -27 0
-361 49 0
-361 27 0
362 -361 -744 0
-362 361 0
-362 744 0
363 -849 -360 0
-363 849 0
-363 360 0
364 -36 -721 0
-364 36 0
-364 721 0
365 -364 -699 0
-365 364 0
-365 699 0
366 -850 -363 0
-366 850 0
-366 363 0
367 -729 -18 0
-367 729 0
-367 18 0
368 -367 -799 0
-368 367 0
-368 799 0
369 -851 -366 0
-369 851 0
-369 366 0
370 -23 -18 0
-370 23 0
-370 18 0
371 -370 -723 0
-371 370 0
-371 723 0
372 -852 -369 0
-372 852 0
-372 369 0
373 -48 -26 0
-373 48 0
-373 26 0
374 -373 -714 0
-374 373 0
-374 714 0
375 -853 -372 0
-375 853 0
-375 372 0
376 -212 -733 0
-376 212 0
-376 733 0
377 -854 -375 0
-377 854 0
-377 375 0
378 -39 -1 0
-378 39 0
-378 1 0
379 -378 -49 0
-379 378 0
-379 49 0
380 -855 -377 0
-380 855 0
-380 377 0
381 -856 -710 0
-381 856 0
-381 710 0
382 -381 -12 0
-382 381 0
-382 12 0
383 -857 -380 0
-383 857 0
-383 380 0
384 -44 -23 0
-384 44 0
-384 23 0
385 -384 -40 0
-385 384 0
-385 40 0
386 -858 -383 0
-386 858 0
-386 383 0
387 -11 -753 0
-387 11 0
-387 753 0
388 -387 -822 0
-388 387 0
-388 822 0
389 -859 -386 0
-389 859 0
-389 386 0
390 -50 -742 0
-390 50 0
-390 742 0
391 -390 -37 0
-391 390 0
-391 37 0
392 -860 -389 0
-392 860 0
-392 389 0
393 -732 -703 0
-393 732 0
-393 703 0
394 -393 -22 0
-394 393 0
-394 22 0
395 -861 -392 0
-395 861 0
-395 392 0
396 -799 -3 0
-396 799 0
-396 3 0
397 -396 -20 0
-397 396 0
-397 20 0
398 -862 -395 0
-398 862 0
-398 395 0
399 -21 -761 0
-399 21 0
-399 761 0
400 -399 -714 0
-400 399 0
-400 714 0
401 -863 -398 0
-401 863 0
-401 398 0
402 -736 -750 0
-402 736 0
-402 750 0
403 -402 -801 0
-403 402 0
-403 801 0
404 -864 -401 0
-404 864 0
-404 401 0
405 -729 -753 0
-405 729 0
-405 753 0
406 -405 -34 0
-406 405 0
-406 34 0
407 -865 -404 0
-407 865 0
-407 404 0
408 -804 -36 0
-408 804 0
-408 36 0
409 -408 -794 0
-409 408 0
-409 794 0
410 -866 -407 0
-410 866 0
-410 407 0
411 -36 -720 0
-411 36 0
-411 720 0
412 -411 -21 0
-412 411 0
-412 21 0
413 -867 -410 0
-413 867 0
-413 410 0
414 -778 -31 0
-414 778 0
-414 31 0
415 -414 -46 0
-415 414 0
-415 46 0
416 -868 -413 0
-416 868 0
-416 413 0
417 -7 -2 0
-417 7 0
-417 2 0
418 -417 -36 0
-418 417 0
-418 36 0
419 -869 -416 0
-419 869 0
-419 416 0
420 -757 -710 0
-420 757 0
-420 710 0
421 -420 -37 0
-421 420 0
-421 37 0
422 -870 -419 0
-422 870 0
-422 419 0
423 -799 -750 0
-423 799 0
-423 750 0
424 -423 -31 0
-424 423 0
-424 31 0
425 -871 -422 0
-425 871 0
-425 422 0
426 -15 -763 0
-426 15 0
-426 763 0
427 -426 -791 0
-427 426 0
-427 791 0
428 -872 -425 0
-428 872 0
-428 425 0
429 -41 -28 0
-429 41 0
-429 28 0
430 -429 -733 0
-430 429 0
-430 733 0
431 -873 -428 0
-431 873 0
-431 428 0
432 -29 -14 0
-432 29 0
-432 14 0
433 -432 -38 0
-433 432 0
-433 38 0
434 -874 -431 0
-434 874 0
-434 431 0
435 -42 -10 0
-435 42 0
-435 10 0
436 -435 -721 0
-436 435 0
-436 721 0
437 -875 -434 0
-437 875 0
-437 434 0
438 -49 -16 0
-438 49 0
-438 16 0
439 -438 -744 0
-439 438 0
-439 744 0
440 -876 -437 0
-440 876 0
-440 437 0
441 -856 -750 0
-441 856 0
-441 750 0
442 -441 -18 0
-442 441 0
-442 18 0
443 -877 -440 0
-443 877 0
-443 440 0
444 -721 -856 0
-444 721 0
-444 856 0
445 -444 -699 0
-445 444 0
-445 699 0
446 -878 -443 0
-446 878 0
-446 443 0
447 -32 -8 0
-447 32 0
-447 8 0
448 -447 -15 0
-448 447 0
-448 15 0
449 -879 -446 0
-449 879 0
-449 446 0
450 -28 -695 0
-450 28 0
-450 695 0
451 -450 -35 0
-451 450 0
-451 35 0
452 -880 -449 0
-452 880 0
-452 449 0
453 -706 -1 0
-453 706 0
-453 1 0
454 -453 -804 0
-454 453 0
-454 804 0
455 -881 -452 0
-455 881 0
-455 452 0
456 -750 -5 0
-456 750 0
-456 5 0
457 -456 -742 0
-457 456 0
-457 742 0
458 -882 -455 0
-458 882 0
-458 455 0
459 -757 -7 0
-459 757 0
-459 7 0
460 -459 -22 0
-460 459 0
-460 22 0
461 -883 -458 0
-461 883 0
-461 458 0
462 -710 -698 0
-462 710 0
-462 698 0
463 -462 -12 0
-463 462 0
-463 12 0
464 -884 -461 0
-464 884 0
-464 461 0
465 -824 -18 0
-465 824 0
-465 18 0
466 -465 -733 0
-466 465 0
-466 733 0
467 -885 -464 0
-467 885 0
-467 464 0
468 -37 -30 0
-468 37 0
-468 30 0
469 -468 -3 0
-469 468 0
-469 3 0
470 -886 -467 0
-470 886 0
-470 467 0
471 -19 -4 0
-471 19 0
-471 4 0
472 -471 -774 0
-472 471 0
-472 774 0
473 -887 -470 0
-473 887 0
-473 470 0
474 -773 -713 0
-474 773 0
-474 713 0
475 -474 -45 0
-475 474 0
-475 45 0
476 -888 -473 0
-476 888 0
-476 473 0
477 -35 -22 0
-477 35 0
-477 22 0
478 -477 -699 0
-478 477 0
-478 699 0
479 -889 -476 0
-479 889 0
-479 476 0
480 -752 -2 0
-480 752 0
-480 2 0
481 -480 -768 0
-481 480 0
-481 768 0
482 -890 -479 0
-482 890 0
-482 479 0
483 -28 -763 0
-483 28 0
-483 763 0
484 -483 -24 0
-484 483 0
-484 24 0
485 -891 -482 0
-485 891 0
-485 482 0
486 -44 -15 0
-486 44 0
-486 15 0
487 -486 -742 0
-487 486 0
-487 742 0
488 -892 -485 0
-488 892 0
-488 485 0
489 -701 -3 0
-489 701 0
-489 3 0
490 -489 -739 0
-490 489 0
-490 739 0
491 -893 -488 0
-491 893 0
-491 488 0
492 -30 -1 0
-492 30 0
-492 1 0
493 -492 -726 0
-493 492 0
-493 726 0
494 -894 -491 0
-494 894 0
-494 491 0
495 -726 -765 0
-495 726 0
-495 765 0
496 -495 -708 0
-496 495 0
-496 708 0
497 -895 -494 0
-497 895 0
-497 494 0
498 -742 -17 0
-498 742 0
-498 17 0
499 -498 -43 0
-499 498 0
-499 43 0
500 -896 -497 0
-500 896 0
-500 497 0
501 -41 -716 0
-501 41 0
-501 716 0
502 -501 -822 0
-502 501 0
-502 822 0
503 -897 -500 0
-503 897 0
-503 500 0
504 -14 -8 0
-504 14 0
-504 8 0
505 -504 -768 0
-505 504 0
-505 768 0
506 -898 -503 0
-506 898 0
-506 503 0
507 -791 -698 0
-507 791 0
-507 698 0
508 -507 -34 0
-508 507 0
-508 34 0
509 -899 -506 0
-509 899 0
-509 506 0
510 -773 -26 0
-510 773 0
-510 26 0
511 -510 -732 0
-511 510 0
-511 732 0
512 -900 -509 0
-512 900 0
-512 509 0
513 -791 -47 0
-513 791 0
-513 47 0
514 -513 -723 0
-514 513 0
-514 723 0
515 -901 -512 0
-515 901 0
-515 512 0
516 -14 -703 0
-516 14 0
-516 703 0
517 -516 -26 0
-517 516 0
-517 26 0
518 -902 -515 0
-518 902 0
-518 515 0
519 -720 -701 0
-519 720 0
-519 701 0
520 -519 -730 0
-520 519 0
-520 730 0
521 -903 -518 0
-521 903 0
-521 518 0
522 -49 -729 0
-522 49 0
-522 729 0
523 -522 -40 0
-523 522 0
-523 40 0
524 -904 -521 0
-524 904 0
-524 521 0
525 -710 -2 0
-525 710 0
-525 2 0
526 -525 -768 0
-526 525 0
-526 768 0
527 -905 -524 0
-527 905 0
-527 524 0
528 -15 -11 0
-528 15 0
-528 11 0
529 -528 -27 0
-529 528 0
-529 27 0
530 -906 -527 0
-530 906 0
-530 527 0
531 -4 -801 0
-531 4 0
-531 801 0
532 -531 -708 0
-532 531 0
-532 708 0
533 -907 -530 0
-533 907 0
-533 530 0
534 -48 -772 0
-534 48 0
-534 772 0
535 -534 -29 0
-535 534 0
-535 29 0
536 -908 -533 0
-536 908 0
-536 533 0
537 -799 -13 0
-537 799 0
-537 13 0
538 -537 -45 0
-538 537 0
-538 45 0
539 -909 -536 0
-539 909 0
-539 536 0
540 -45 -830 0
-540 45 0
-540 830 0
541 -540 -714 0
-541 540 0
-541 714 0
542 -910 -539 0
-542 910 0
-542 539 0
543 -50 -737 0
-543 50 0
-543 737 0
544 -543 -16 0
-544 543 0
-544 16 0
545 -911 -542 0
-545 911 0
-545 542 0
546 -28 -716 0
-546 28 0
-546 716 0
547 -546 -27 0
-547 546 0
-547 27 0
548 -912 -545 0
-548 912 0
-548 545 0
549 -200 -29 0
-549 200 0
-549 29 0
550 -913 -548 0
-550 913 0
-550 548 0
551 -26 -7 0
-551 26 0
-551 7 0
552 -551 -20 0
-552 551 0
-552 20 0
553 -914 -550 0
-553 914 0
-553 550 0
554 -830 -7 0
-554 830 0
-554 7 0
555 -554 -43 0
-555 554 0
-555 43 0
556 -915 -553 0
-556 915 0
-556 553 0
557 -772 -15 0
-557 772 0
-557 15 0
558 -557 -755 0
-558 557 0
-558 755 0
559 -916 -556 0
-559 916 0
-559 556 0
560 -794 -10 0
-560 794 0
-560 10 0
561 -560 -714 0
-561 560 0
-561 714 0
562 -917 -559 0
-562 917 0
-562 559 0
563 -782 -755 0
-563 782 0
-563 755 0
564 -563 -768 0
-564 563 0
-564 768 0
565 -918 -562 0
-565 918 0
-565 562 0
566 -5 -695 0
-566 5 0
-566 695 0
567 -566 -713 0
-567 566 0
-567 713 0
568 -919 -565 0
-568 919 0
-568 565 0
569 -28 -750 0
-569 28 0
-569 750 0
570 -569 -801 0
-570 569 0
-570 801 0
571 -920 -568 0
-571 920 0
-571 568 0
572 -824 -43 0
-572 824 0
-572 43 0
573 -572 -794 0
-573 572 0
-573 794 0
574 -921 -571 0
-574 921 0
-574 571 0
575 -736 -2 0
-575 736 0
-575 2 0
576 -575 -768 0
-576 575 0
-576 768 0
577 -922 -574 0
-577 922 0
-577 574 0
578 -37 -29 0
-578 37 0
-578 29 0
579 -578 -794 0
-579 578 0
-579 794 0
580 -923 -577 0
-580 923 0
-580 577 0
581 -19 -698 0
-581 19 0
-581 698 0
582 -581 -804 0
-582 581 0
-582 804 0
583 -924 -580 0
-583 924 0
-583 580 0
584 -2 -765 0
-584 2 0
-584 765 0
585 -584 -18 0
-585 584 0
-585 18 0
586 -925 -583 0
-586 925 0
-586 583 0
587 -32 -5 0
-587 32 0
-587 5 0
588 -587 -39 0
-588 587 0
-588 39 0
589 -926 -586 0
-589 926 0
-589 586 0
590 -778 -18 0
-590 778 0
-590 18 0
591 -590 -37 0
-591 590 0
-591 37 0
592 -927 -589 0
-592 927 0
-592 589 0
593 -703 -2 0
-593 703 0
-593 2 0
594 -593 -729 0
-594 593 0
-594 729 0
595 -928 -592 0
-595 928 0
-595 592 0
596 -729 -7 0
-596 729 0
-596 7 0
597 -596 -48 0
-597 596 0
-597 48 0
598 -929 -595 0
-598 929 0
-598 595 0
599 -38 -750 0
-599 38 0
-599 750 0
600 -599 -24 0
-600 599 0
-600 24 0
601 -930 -598 0
-601 930 0
-601 598 0
602 -2 -1 0
-602 2 0
-602 1 0
603 -602 -21 0
-603 602 0
-603 21 0
604 -931 -601 0
-604 931 0
-604 601 0
605 -35 -11 0
-605 35 0
-605 11 0
606 -605 -13 0
-606 605 0
-606 13 0
607 -932 -604 0
-607 932 0
-607 604 0
608 -720 -765 0
-608 720 0
-608 765 0
609 -608 -782 0
-609 608 0
-609 782 0
610 -933 -607 0
-610 933 0
-610 607 0
611 -698 -753 0
-611 698 0
-611 753 0
612 -611 -46 0
-612 611 0
-612 46 0
613 -934 -610 0
-613 934 0
-613 610 0
614 -50 -710 0
-614 50 0
-614 710 0
615 -614 -704 0
-615 614 0
-615 704 0
616 -935 -613 0
-616 935 0
-616 613 0
617 -36 -19 0
-617 36 0
-617 19 0
618 -617 -794 0
-618 617 0
-618 794 0
619 -936 -616 0
-619 936 0
-619 616 0
620 -822 -695 0
-620 822 0
-620 695 0
621 -620 -13 0
-621 620 0
-621 13 0
622 -937 -619 0
-622 937 0
-622 619 0
623 -824 -706 0
-623 824 0
-623 706 0
624 -623 -43 0
-624 623 0
-624 43 0
625 -938 -622 0
-625 938 0
-625 622 0
626 -778 -801 0
-626 778 0
-626 801 0
627 -626 -16 0
-627 626 0
-627 16 0
628 -939 -625 0
-628 939 0
-628 625 0
629 -782 -28 0
-629 782 0
-629 28 0
630 -629 -761 0
-630 629 0
-630 761 0
631 -940 -628 0
-631 940 0
-631 628 0
632 -292 -801 0
-632 292 0
-632 801 0
633 -941 -631 0
-633 941 0
-633 631 0
634 -626 -40 0
-634 626 0
-634 40 0
635 -942 -633 0
-635 942 0
-635 633 0
636 -29 -736 0
-636 29 0
-636 736 0
637 -636 -699 0
-637 636 0
-637 699 0
638 -943 -635 0
-638 943 0
-638 635 0
639 -782 -26 0
-639 782 0
-639 26 0
640 -639 -40 0
-640 639 0
-640 40 0
641 -944 -638 0
-641 944 0
-641 638 0
642 -782 -35 0
-642 782 0
-642 35 0
643 -642 -22 0
-643 642 0
-643 22 0
644 -945 -641 0
-644 945 0
-644 641 0
645 -5 -1 0
-645 5 0
-645 1 0
646 -645 -768 0
-646 645 0
-646 768 0
647 -946 -644 0
-647 946 0
-647 644 0
648 -50 -750 0
-648 50 0
-648 750 0
649 -648 -27 0
-649 648 0
-649 27 0
650 -947 -647 0
-650 947 0
-650 647 0
651 -804 -752 0
-651 804 0
-651 752 0
652 -651 -726 0
-652 651 0
-652 726 0
653 -948 -650 0
-653 948 0
-653 650 0
654 -19 -11 0
-654 19 0
-654 11 0
655 -654 -699 0
-655 654 0
-655 699 0
656 -949 -653 0
-656 949 0
-656 653 0
657 -50 -17 0
-657 50 0
-657 17 0
658 -657 -26 0
-658 657 0
-658 26 0
659 -950 -656 0
-659 950 0
-659 656 0
660 -799 -1 0
-660 799 0
-660 1 0
661 -660 -21 0
-661 660 0
-661 21 0
662 -951 -659 0
-662 951 0
-662 659 0
663 -804 -736 0
-663 804 0
-663 736 0
664 -663 -30 0
-664 663 0
-664 30 0
665 -952 -662 0
-665 952 0
-665 662 0
666 -782 -799 0
-666 782 0
-666 799 0
667 -666 -699 0
-667 666 0
-667 699 0
668 -953 -665 0
-668 953 0
-668 665 0
669 -47 -11 0
-669 47 0
-669 11 0
670 -669 -801 0
-670 669 0
-670 801 0
671 -954 -668 0
-671 954 0
-671 668 0
672 -742 -753 0
-672 742 0
-672 753 0
673 -672 -46 0
-673 672 0
-673 46 0
674 -955 -671 0
-674 955 0
-674 671 0
675 -259 -713 0
-675 259 0
-675 713 0
676 -956 -674 0
-676 956 0
-676 674 0
677 -31 -25 0
-677 31 0
-677 25 0
678 -677 -16 0
-678 677 0
-678 16 0
679 -957 -676 0
-679 957 0
-679 676 0
680 -42 -12 0
-680 42 0
-680 12 0
681 -680 -714 0
-681 680 0
-681 714 0
682 -958 -679 0
-682 958 0
-682 679 0
683 -41 -10 0
-683 41 0
-683 10 0
684 -683 -723 0
-684 683 0
-684 723 0
685 -959 -682 0
-685 959 0
-685 682 0
686 -856 -12 0
-686 856 0
-686 12 0
687 -686 -739 0
-687 686 0
-687 739 0
688 -960 -685 0
-688 960 0
-688 685 0
689 -706 -703 0
-689 706 0
-689 703 0
690 -689 -16 0
-690 689 0
-690 16 0
691 -961 -688 0
-691 961 0
-691 688 0
692 -773 -28 0
-692 773 0
-692 28 0
693 -692 -30 0
-693 692 0
-693 30 0
694 -962 -691 0
-694 962 0
-694 691 0
-695 -2 0
695 2 0
-696 -54 0
696 54 0
-697 -52 0
697 52 0
-698 -8 0
698 8 0
-699 -9 0
699 9 0
-700 -57 0
700 57 0
-701 -10 0
701 10 0
-702 -60 0
702 60 0
-703 -4 0
703 4 0
-704 -13 0
704 13 0
-705 -63 0
705 63 0
-706 -15 0
706 15 0
-707 -66 0
707 66 0
-708 -16 0
708 16 0
-709 -69 0
709 69 0
-710 -17 0
710 17 0
-711 -72 0
711 72 0
-712 -75 0
712 75 0
-713 -23 0
713 23 0
-714 -24 0
714 24 0
-715 -78 0
715 78 0
-716 -26 0
716 26 0
-717 -81 0
717 81 0
-718 -20 0
718 20 0
-719 -84 0
719 84 0
-720 -28 0
720 28 0
-721 -29 0
721 29 0
-722 -87 0
722 87 0
-723 -21 0
723 21 0
-724 -90 0
724 90 0
-725 -93 0
725 93 0
-726 -31 0
726 31 0
-727 -96 0
727 96 0
-728 -99 0
728 99 0
-729 -33 0
729 33 0
-730 -32 0
730 32 0
-731 -102 0
731 102 0
-732 -35 0
732 35 0
-733 -36 0
733 36 0
-734 -105 0
734 105 0
-735 -37 0
735 37 0
-736 -22 0
736 22 0
-737 -30 0
737 30 0
-738 -108 0
738 108 0
-739 -38 0
739 38 0
-740 -111 0
740 111 0
-741 -114 0
741 114 0
-742 -39 0
742 39 0
-743 -117 0
743 117 0
-744 -40 0
744 40 0
-745 -120 0
745 120 0
-746 -123 0
746 123 0
-747 -126 0
747 126 0
-748 -129 0
748 129 0
-749 -132 0
749 132 0
-750 -14 0
750 14 0
-751 -135 0
751 135 0
-752 -7 0
752 7 0
-753 -6 0
753 6 0
-754 -138 0
754 138 0
-755 -5 0
755 5 0
-756 -141 0
756 141 0
-757 -18 0
757 18 0
-758 -144 0
758 144 0
-759 -147 0
759 147 0
-760 -150 0
760 150 0
-761 -12 0
761 12 0
-762 -153 0
762 153 0
-763 -11 0
763 11 0
-764 -156 0
764 156 0
-765 -1 0
765 1 0
-766 -159 0
766 159 0
-767 -162 0
767 162 0
-768 -45 0
768 45 0
-769 -165 0
769 165 0
-770 -168 0
770 168 0
-771 -171 0
771 171 0
-772 -44 0
772 44 0
-773 -42 0
773 42 0
-774 -46 0
774 46 0
-775 -174 0
775 174 0
-776 -177 0
776 177 0
-777 -180 0
777 180 0
-778 -47 0
778 47 0
-779 -183 0
779 183 0
-780 -186 0
780 186 0
-781 -189 0
781 189 0
-782 -41 0
782 41 0
-783 -192 0
783 192 0
-784 -195 0
784 195 0
-785 -198 0
785 198 0
-786 -201 0
786 201 0
-787 -204 0
787 204 0
-788 -207 0
788 207 0
-789 -210 0
789 210 0
-790 -213 0
790 213 0
-791 -48 0
791 48 0
-792 -216 0
792 216 0
-793 -219 0
793 219 0
-794 -49 0
794 49 0
-795 -222 0
795 222 0
-796 -225 0
796 225 0
-797 -228 0
797 228 0
-798 -230 0
798 230 0
-799 -27 0
799 27 0
-800 -233 0
800 233 0
-801 -3 0
801 3 0
-802 -236 0
802 236 0
-803 -239 0
803 239 0
-804 -43 0
804 43 0
-805 -242 0
805 242 0
-806 -245 0
806 245 0
-807 -248 0
807 248 0
-808 -251 0
808 251 0
-809 -254 0
809 254 0
-810 -257 0
810 257 0
-811 -260 0
811 260 0
-812 -263 0
812 263 0
-813 -266 0
813 266 0
-814 -269 0
814 269 0
-815 -272 0
815 272 0
-816 -275 0
816 275 0
-817 -278 0
817 278 0
-818 -281 0
818 281 0
-819 -284 0
819 284 0
-820 -287 0
820 287 0
-821 -290 0
821 290 0
-822 -34 0
822 34 0
-823 -293 0
823 293 0
-824 -50 0
824 50 0
-825 -296 0
825 296 0
-826 -299 0
826 299 0
-827 -302 0
827 302 0
-828 -304 0
828 304 0
-829 -307 0
829 307 0
-830 -25 0
830 25 0
-831 -310 0
831 310 0
-832 -313 0
832 313 0
-833 -316 0
833 316 0
-834 -319 0
834 319 0
-835 -322 0
835 322 0
-836 -324 0
836 324 0
-837 -327 0
837 327 0
-838 -330 0
838 330 0
-839 -333 0
839 333 0
-840 -335 0
840 335 0
-841 -338 0
841 338 0
-842 -341 0
842 341 0
-843 -344 0
843 344 0
-844 -347 0
844 347 0
-845 -350 0
845 350 0
-846 -353 0
846 353 0
-847 -356 0
847 356 0
-848 -359 0
848 359 0
-849 -362 0
849 362 0
-850 -365 0
850 365 0
-851 -368 0
851 368 0
-852 -371 0
852 371 0
-853 -374 0
853 374 0
-854 -376 0
854 376 0
-855 -379 0
855 379 0
-856 -19 0
856 19 0
-857 -382 0
857 382 0
-858 -385 0
858 385 0
-859 -388 0
859 388 0
-860 -391 0
860 391 0
-861 -394 0
861 394 0
-862 -397 0
862 397 0
-863 -400 0
863 400 0
-864 -403 0
864 403 0
-865 -406 0
865 406 0
-866 -409 0
866 409 0
-867 -412 0
867 412 0
-868 -415 0
868 415 0
-869 -418 0
869 418 0
-870 -421 0
870 421 0
-871 -424 0
871 424 0
-872 -427 0
872 427 0
-873 -430 0
873 430 0
-874 -433 0
874 433 0
-875 -436 0
875 436 0
-876 -439 0
876 439 0
-877 -442 0
877 442 0
-878 -445 0
878 445 0
-879 -448 0
879 448 0
-880 -451 0
880 451 0
-881 -454 0
881 454 0
-882 -457 0
882 457 0
-883 -460 0
883 460 0
-884 -463 0
884 463 0
-885 -466 0
885 466 0
-886 -469 0
886 469 0
-887 -472 0
887 472 0
-888 -475 0
888 475 0
-889 -478 0
889 478 0
-890 -481 0
890 481 0
-891 -484 0
891 484 0
-892 -487 0
892 487 0
-893 -490 0
893 490 0
-894 -493 0
894 493 0
-895 -496 0
895 496 0
-896 -499 0
896 499 0
-897 -502 0
897 502 0
-898 -505 0
898 505 0
-899 -508 0
899 508 0
-900 -511 0
900 511 0
-901 -514 0
901 514 0
-902 -517 0
902 517 0
-903 -520 0
903 520 0
-904 -523 0
904 523 0
-905 -526 0
905 526 0
-906 -529 0
906 529 0
-907 -532 0
907 532 0
-908 -535 0
908 535 0
-909 -538 0
909 538 0
-910 -541 0
910 541 0
-911 -544 0
911 544 0
-912 -547 0
912 547 0
-913 -549 0
913 549 0
-914 -552 0
914 552 0
-915 -555 0
915 555 0
-916 -558 0
916 558 0
-917 -561 0
917 561 0
-918 -564 0
918 564 0
-919 -567 0
919 567 0
-920 -570 0
920 570 0
-921 -573 0
921 573 0
-922 -576 0
922 576 0
-923 -579 0
923 579 0
-924 -582 0
924 582 0
-925 -585 0
925 585 0
-926 -588 0
926 588 0
-927 -591 0
927 591 0
-928 -594 0
928 594 0
-929 -597 0
929 597 0
-930 -600 0
930 600 0
-931 -603 0
931 603 0
-932 -606 0
932 606 0
-933 -609 0
933 609 0
-934 -612 0
934 612 0
-935 -615 0
935 615 0
-936 -618 0
936 618 0
-937 -621 0
937 621 0
-938 -624 0
938 624 0
-939 -627 0
939 627 0
-940 -630 0
940 630 0
-941 -632 0
941 632 0
-942 -634 0
942 634 0
-943 -637 0
943 637 0
-944 -640 0
944 640 0
-945 -643 0
945 643 0
-946 -646 0
946 646 0
-947 -649 0
947 649 0
-948 -652 0
948 652 0
-949 -655 0
949 655 0
-950 -658 0
950 658 0
-951 -661 0
951 661 0
-952 -664 0
952 664 0
-953 -667 0
953 667 0
-954 -670 0
954 670 0
-955 -673 0
955 673 0
-956 -675 0
956 675 0
-957 -678 0
957 678 0
-958 -681 0
958 681 0
-959 -684 0
959 684 0
-960 -687 0
960 687 0
-961 -690 0
961 690 0
-962 -693 0
962 693 0
694 0
